unsat
((set-logic NIA)
(declare-fun a!4 () Int)
(declare-fun s!0 () Int)
(declare-fun b!2 () Int)
(declare-fun r!1 () Int)
(declare-fun q!3 () Int)
(declare-fun p!5 () Int)
(proof
(let ((?x1102 (* r!1 b!2)))
 (let ((?x134 (* s00 a00)))
 (let ((?x1125 (+ ?x134 (* (- 1) (* r00 b00)) ?x1102 (* (- 1) (* s!0 a!4)))))
 (let (($x1094 (>= ?x1125 0)))
 (let (($x1130 (= ?x1125 0)))
 (let ((?x493 (* (- 2) (* r!1 p!5 p!5 p!5 s!0 s!0 s!0 s!0 b!2 q!3))))
 (let ((?x1276 (* 6 (* r!1 p!5 p!5 s!0 s!0 s!0 s!0 b!2 q!3 q!3))))
 (let ((?x292 (* (- 1) (* r!1 r!1 s!0 s!0 s!0 b!2 q!3 q!3 q!3 q!3))))
 (let ((?x325 (* (- 3) (* r!1 r!1 p!5 p!5 s!0 s!0 s!0 b!2 q!3 q!3))))
 (let ((?x213 (* 3 (* r!1 r!1 p!5 s!0 s!0 s!0 b!2 q!3 q!3 q!3))))
 (let ((?x1205 (* r!1 p!5 s!0 a!4 a!4 b!2 q!3 q!3 q!3)))
 (let ((?x1267 (* (- 1) (* r!1 r!1 p!5 p!5 s!0 s!0 q!3))))
 (let ((?x1630 (* 3 (* p!5 s!0 s!0 s!0 s!0 s!0 b!2 q!3 q!3 q!3))))
 (let ((?x808 (+ p!5 (* (- 1) q!3))))
 (let ((?x1254 (+ a!4 (* (- 1) b!2))))
 (let ((?x1730 (+ r!1 (* (- 1) s!0))))
 (let ((?x809 (* ?x1730 ?x1730 ?x1730 ?x1254 ?x1254 ?x808 ?x808 s!0 b!2 b!2)))
 (let ((?x528 (* (- 1) (* s!0 s!0 s!0 s!0 s!0 b!2 q!3 q!3 q!3 q!3))))
 (let ((?x1384 (* (- 6) (* r!1 p!5 s!0 s!0 s!0 s!0 b!2 q!3 q!3 q!3))))
 (let ((?x377 (* 2 (* r!1 s!0 s!0 s!0 s!0 b!2 q!3 q!3 q!3 q!3))))
 (let ((?x559 (* (- 3) (* p!5 p!5 s!0 s!0 s!0 s!0 s!0 b!2 q!3 q!3))))
 (let ((?x291 (* r!1 r!1 p!5 p!5 p!5 s!0 s!0 s!0 b!2 q!3)))
 (let ((?x1817 (+ ?x291 ?x559 ?x377 ?x1384 ?x528 ?x809 ?x1630 (* 2 (* r!1 p!5 p!5 s!0 s!0 s!0 q!3)) (* (- 4) (* r!1 p!5 s!0 s!0 s!0 q!3 q!3)) (* 2 (* r!1 s!0 s!0 s!0 q!3 q!3 q!3)) ?x1267 (* (- 2) (* r!1 p!5 s!0 a!4 b!2 b!2 q!3 q!3 q!3)) ?x1205 (* r!1 p!5 s!0 b!2 b!2 b!2 q!3 q!3 q!3) (* (- 1) (* r!1 s!0 a!4 a!4 b!2 q!3 q!3 q!3 q!3)) (* (- 1) (* p!5 s!0 s!0 a!4 a!4 b!2 q!3 q!3 q!3)) (* 2 (* r!1 s!0 a!4 b!2 b!2 q!3 q!3 q!3 q!3)) (* (- 1) (* r!1 s!0 b!2 b!2 b!2 q!3 q!3 q!3 q!3)) (* 2 (* p!5 s!0 s!0 a!4 b!2 b!2 q!3 q!3 q!3)) (* (- 1) (* p!5 s!0 s!0 b!2 b!2 b!2 q!3 q!3 q!3)) (* s!0 s!0 a!4 a!4 b!2 q!3 q!3 q!3 q!3) (* (- 2) (* s!0 s!0 a!4 b!2 b!2 q!3 q!3 q!3 q!3)) (* s!0 s!0 b!2 b!2 b!2 q!3 q!3 q!3 q!3) (* 2 (* r!1 r!1 p!5 s!0 s!0 q!3 q!3)) (* (- 1) (* r!1 r!1 s!0 s!0 q!3 q!3 q!3)) (* (- 1) (* p!5 p!5 s!0 s!0 s!0 s!0 q!3)) (* p!5 p!5 p!5 s!0 s!0 s!0 s!0 s!0 b!2 q!3) ?x213 ?x325 ?x292 (* (- 1) (* s!0 s!0 s!0 s!0 q!3 q!3 q!3)) (* 2 (* p!5 s!0 s!0 s!0 s!0 q!3 q!3)) ?x1276 ?x493)))
 (let ((?x1107 (* s!0 a!4)))
 (let ((?x152 (* r00 b00)))
 (let ((?x141 (* (- 1) ?x134)))
 (let ((?x1074 (+ ?x141 ?x152 (* (- 1) ?x1102) ?x1107)))
 (let ((?x160 (* ?x1074 ?x1817)))
 (let (($x1215 (= ?x160 0)))
 (let ((?x1522 (* (- 1) (* r!1 r!1 p!5 p!5 p!5 s!0 s!0 s!0 a!4 q!3))))
 (let ((?x1856 (* (- 3) (* r!1 r!1 r!1 p!5 p!5 p!5 s!0 s!0 b!2 q!3))))
 (let ((?x1616 (* 3 (* r!1 r!1 r!1 p!5 p!5 p!5 s!0 s!0 a!4 q!3))))
 (let ((?x300 (* (- 3) (* r!1 r!1 r!1 p!5 p!5 p!5 p!5 s!0 s!0 a!4))))
 (let ((?x1602 (* 3 (* r!1 r!1 r!1 r!1 p!5 p!5 p!5 s!0 b!2 q!3))))
 (let ((?x1323 (* (- 2) (* r!1 r!1 r!1 p!5 p!5 s!0 a!4 a!4 a!4 b!2))))
 (let ((?x1514 (* (- 3) (* r!1 r!1 r!1 r!1 p!5 p!5 p!5 p!5 s!0 b!2))))
 (let ((?x298 (* 3 (* r!1 r!1 r!1 r!1 p!5 p!5 p!5 p!5 s!0 a!4))))
 (let ((?x1576 (* (- 1) (* r!1 r!1 r!1 r!1 r!1 p!5 p!5 p!5 b!2 q!3))))
 (let ((?x1591 (* (- 3) (* r!1 r!1 r!1 r!1 p!5 p!5 p!5 s!0 a!4 q!3))))
 (let ((?x1629 (* (- 1) (* r!1 r!1 p!5 p!5 p!5 p!5 s!0 s!0 s!0 b!2))))
 (let ((?x163 (* (- 1) (* r!1 r!1 r!1 r!1 p!5 p!5 a!4 a!4 a!4 a!4))))
 (let ((?x1611 (* 3 (* r!1 r!1 r!1 p!5 p!5 p!5 p!5 s!0 s!0 b!2))))
 (let ((?x360 (* (- 1) (* r!1 r!1 r!1 r!1 p!5 p!5 a!4 a!4 b!2 b!2))))
 (let ((?x446 (* 2 (* r!1 r!1 r!1 r!1 p!5 p!5 a!4 a!4 a!4 b!2))))
 (let ((?x1289 (* (- 1) (* r!1 r!1 r!1 r!1 r!1 p!5 p!5 p!5 p!5 a!4))))
 (let ((?x923 (+ ?x1289 ?x446 ?x360 (* r!1 r!1 r!1 r!1 r!1 p!5 p!5 p!5 p!5 b!2) (* 3 (* r!1 p!5 p!5 s!0 a!4 a!4 a!4 q!3 q!3)) ?x1611 ?x291 (* (- 1) (* r!1 p!5 s!0 a!4 a!4 a!4 q!3 q!3 q!3)) (* r!1 r!1 r!1 r!1 p!5 p!5 p!5) (* r!1 r!1 r!1 p!5 p!5 s!0 a!4 a!4 a!4 a!4) (* (- 3) (* r!1 p!5 p!5 s!0 a!4 a!4 b!2 q!3 q!3)) (* (- 1) (* r!1 r!1 r!1 r!1 p!5 p!5 q!3)) (* 2 (* r!1 r!1 r!1 p!5 p!5 s!0 q!3)) ?x163 ?x1267 (* (- 3) (* r!1 r!1 p!5 p!5 p!5 a!4 a!4 b!2 q!3)) (* r!1 r!1 p!5 p!5 p!5 p!5 a!4 a!4 b!2) ?x1205 (* (- 1) (* r!1 r!1 p!5 p!5 p!5 p!5 a!4 a!4 a!4)) (* 3 (* r!1 r!1 p!5 p!5 p!5 a!4 a!4 a!4 q!3)) (* (- 3) (* r!1 r!1 p!5 p!5 a!4 a!4 a!4 q!3 q!3)) (* 3 (* r!1 r!1 p!5 p!5 a!4 a!4 b!2 q!3 q!3)) (* r!1 r!1 p!5 a!4 a!4 a!4 q!3 q!3 q!3) (* (- 1) (* r!1 r!1 p!5 a!4 a!4 b!2 q!3 q!3 q!3)) (* r!1 r!1 r!1 p!5 p!5 s!0 a!4 a!4 b!2 b!2) (* r!1 p!5 p!5 p!5 p!5 s!0 a!4 a!4 a!4) ?x1629 (* 3 (* r!1 p!5 p!5 p!5 s!0 a!4 a!4 b!2 q!3)) (* r!1 r!1 r!1 r!1 r!1 p!5 p!5 p!5 a!4 q!3) ?x1591 (* (- 3) (* r!1 p!5 p!5 p!5 s!0 a!4 a!4 a!4 q!3)) (* (- 1) (* r!1 p!5 p!5 p!5 p!5 s!0 a!4 a!4 b!2)) ?x1576 (* (- 2) (* r!1 r!1 r!1 p!5 p!5 p!5 s!0)) ?x298 ?x1514 ?x1323 ?x1602 ?x300 ?x1616 ?x1856 (* r!1 r!1 p!5 p!5 p!5 p!5 s!0 s!0 s!0 a!4) ?x1522 (* r!1 r!1 p!5 p!5 p!5 s!0 s!0))))
 (let ((?x1669 (* ?x1074 ?x923)))
 (let (($x1221 (= ?x1669 0)))
 (let (($x1151 (not $x1221)))
 (let (($x1001 (or $x1151 (not $x1215))))
 (let ((?x1198 (+ (* q00 a00 s!0) (* (- 1) (* p00 b00 s!0)) (* (- 1) (* q00 r00 b!2)) (* p00 s00 b!2) (* r00 b00 q!3) (* (- 1) (* s00 a00 q!3)))))
 (let ((?x1026 (+ (* p00 s00 a!4) (* q00 a00 r!1) (* (- 1) (* p00 b00 r!1)) (* (- 1) (* q00 r00 a!4)) (* r00 b00 p!5) (* (- 1) (* s00 a00 p!5)))))
 (let ((?x1414 (* p!5 b!2)))
 (let ((?x140 (* q00 a00)))
 (let (($x1139 (= (+ ?x140 (* (- 1) (* p00 b00)) (* (- 1) (* a!4 q!3)) ?x1414) 0)))
 (let ((?x41 (* q00 r00)))
 (let ((?x616 (* (- 1) ?x41)))
 (let ((?x37 (* p00 s00)))
 (let (($x1039 (and (= (+ ?x37 ?x616 (* r!1 q!3) (* (- 1) (* p!5 s!0))) 0) $x1130 $x1139 (= ?x1026 0) (= ?x1198 0) $x1001)))
 (let ((?x931 (* (- 1) (* p!5 p!5 p!5 a!4 q!3 r!1 r!1 s!0 s!0 s!0))))
 (let ((?x934 (* (- 1) (* p!5 p!5 p!5 p!5 b!2 r!1 r!1 s!0 s!0 s!0))))
 (let ((?x738 (* (- 3) (* p!5 p!5 p!5 q!3 b!2 r!1 r!1 r!1 s!0 s!0))))
 (let ((?x998 (* 3 (* p!5 p!5 p!5 a!4 q!3 r!1 r!1 r!1 s!0 s!0))))
 (let ((?x944 (* 3 (* p!5 p!5 p!5 p!5 b!2 r!1 r!1 r!1 s!0 s!0))))
 (let ((?x737 (* (- 3) (* p!5 p!5 p!5 p!5 a!4 r!1 r!1 r!1 s!0 s!0))))
 (let ((?x947 (* 3 (* p!5 p!5 p!5 q!3 b!2 r!1 r!1 r!1 r!1 s!0))))
 (let ((?x1081 (* (- 3) (* p!5 p!5 p!5 a!4 q!3 r!1 r!1 r!1 r!1 s!0))))
 (let ((?x950 (* (- 3) (* p!5 p!5 p!5 p!5 b!2 r!1 r!1 r!1 r!1 s!0))))
 (let ((?x952 (* 3 (* p!5 p!5 p!5 p!5 a!4 r!1 r!1 r!1 r!1 s!0))))
 (let ((?x955 (* (- 1) (* p!5 p!5 p!5 q!3 b!2 r!1 r!1 r!1 r!1 r!1))))
 (let ((?x964 (* (- 1) (* p!5 p!5 p!5 p!5 a!4 r!1 r!1 r!1 r!1 r!1))))
 (let ((?x735 (* (- 2) (* p!5 p!5 a!4 a!4 a!4 b!2 r!1 r!1 r!1 s!0))))
 (let ((?x979 (* (- 1) (* p!5 p!5 a!4 a!4 b!2 b!2 r!1 r!1 r!1 r!1))))
 (let ((?x1084 (* 2 (* p!5 p!5 a!4 a!4 a!4 b!2 r!1 r!1 r!1 r!1))))
 (let ((?x982 (* (- 1) (* p!5 p!5 a!4 a!4 a!4 a!4 r!1 r!1 r!1 r!1))))
 (let ((?x1657 (* p!5 p!5 p!5 q!3 b!2 r!1 r!1 s!0 s!0 s!0)))
 (let ((?x1596 (* (- 1) (* p!5 p!5 q!3 r!1 r!1 s!0 s!0))))
 (let ((?x1349 (* p!5 a!4 a!4 q!3 q!3 q!3 b!2 r!1 s!0)))
 (let ((?x939 (+ ?x1349 ?x1596 ?x1657 (* (- 1) (* p!5 p!5 p!5 p!5 a!4 a!4 a!4 r!1 r!1)) (* p!5 p!5 p!5 p!5 a!4 a!4 b!2 r!1 r!1) (* 3 (* p!5 p!5 p!5 a!4 a!4 a!4 q!3 r!1 r!1)) (* (- 3) (* p!5 p!5 p!5 a!4 a!4 q!3 b!2 r!1 r!1)) (* (- 3) (* p!5 p!5 a!4 a!4 a!4 q!3 q!3 r!1 r!1)) (* 3 (* p!5 p!5 a!4 a!4 q!3 q!3 b!2 r!1 r!1)) (* p!5 a!4 a!4 a!4 q!3 q!3 q!3 r!1 r!1) (* (- 1) (* p!5 a!4 a!4 q!3 q!3 q!3 b!2 r!1 r!1)) (* p!5 p!5 p!5 p!5 a!4 a!4 a!4 r!1 s!0) (* (- 1) (* p!5 p!5 p!5 p!5 a!4 a!4 b!2 r!1 s!0)) (* (- 3) (* p!5 p!5 p!5 a!4 a!4 a!4 q!3 r!1 s!0)) (* 3 (* p!5 p!5 p!5 a!4 a!4 q!3 b!2 r!1 s!0)) (* 3 (* p!5 p!5 a!4 a!4 a!4 q!3 q!3 r!1 s!0)) (* (- 3) (* p!5 p!5 a!4 a!4 q!3 q!3 b!2 r!1 s!0)) (* (- 1) (* p!5 a!4 a!4 a!4 q!3 q!3 q!3 r!1 s!0)) (* p!5 p!5 p!5 r!1 r!1 r!1 r!1) (* (- 1) (* p!5 p!5 q!3 r!1 r!1 r!1 r!1)) (* (- 2) (* p!5 p!5 p!5 r!1 r!1 r!1 s!0)) (* 2 (* p!5 p!5 q!3 r!1 r!1 r!1 s!0)) (* p!5 p!5 p!5 r!1 r!1 s!0 s!0) ?x982 ?x1084 ?x979 (* p!5 p!5 a!4 a!4 a!4 a!4 r!1 r!1 r!1 s!0) ?x735 (* p!5 p!5 a!4 a!4 b!2 b!2 r!1 r!1 r!1 s!0) ?x964 (* p!5 p!5 p!5 p!5 b!2 r!1 r!1 r!1 r!1 r!1) (* p!5 p!5 p!5 a!4 q!3 r!1 r!1 r!1 r!1 r!1) ?x955 ?x952 ?x950 ?x1081 ?x947 ?x737 ?x944 ?x998 ?x738 (* p!5 p!5 p!5 p!5 a!4 r!1 r!1 s!0 s!0 s!0) ?x934 ?x931)))
 (let ((?x814 (+ (* a!4 s!0) (* (- 1) (* b!2 r!1)) ?x141 ?x152)))
 (let ((?x852 (* (- 1) (* q!3 q!3 q!3 q!3 b!2 s!0 s!0 s!0 s!0 s!0))))
 (let ((?x1239 (* 3 (* p!5 q!3 q!3 q!3 b!2 s!0 s!0 s!0 s!0 s!0))))
 (let ((?x1230 (* (- 3) (* p!5 p!5 q!3 q!3 b!2 s!0 s!0 s!0 s!0 s!0))))
 (let ((?x1009 (* 2 (* q!3 q!3 q!3 q!3 b!2 r!1 s!0 s!0 s!0 s!0))))
 (let ((?x587 (* (- 6) (* p!5 q!3 q!3 q!3 b!2 r!1 s!0 s!0 s!0 s!0))))
 (let ((?x609 (* 6 (* p!5 p!5 q!3 q!3 b!2 r!1 s!0 s!0 s!0 s!0))))
 (let ((?x586 (* (- 2) (* p!5 p!5 p!5 q!3 b!2 r!1 s!0 s!0 s!0 s!0))))
 (let ((?x1257 (* (- 3) (* p!5 p!5 q!3 q!3 b!2 r!1 r!1 s!0 s!0 s!0))))
 (let ((?x1034 (* 3 (* p!5 q!3 q!3 q!3 b!2 r!1 r!1 s!0 s!0 s!0))))
 (let ((?x995 (* (- 1) (* q!3 q!3 q!3 q!3 b!2 r!1 r!1 s!0 s!0 s!0))))
 (let ((?x853 (+ ?x1349 (* (- 2) (* p!5 a!4 q!3 q!3 q!3 b!2 b!2 r!1 s!0)) (* p!5 q!3 q!3 q!3 b!2 b!2 b!2 r!1 s!0) (* (- 1) (* a!4 a!4 q!3 q!3 q!3 q!3 b!2 r!1 s!0)) (* 2 (* a!4 q!3 q!3 q!3 q!3 b!2 b!2 r!1 s!0)) (* (- 1) (* q!3 q!3 q!3 q!3 b!2 b!2 b!2 r!1 s!0)) (* (- 1) (* p!5 a!4 a!4 q!3 q!3 q!3 b!2 s!0 s!0)) (* 2 (* p!5 a!4 q!3 q!3 q!3 b!2 b!2 s!0 s!0)) (* (- 1) (* p!5 q!3 q!3 q!3 b!2 b!2 b!2 s!0 s!0)) (* a!4 a!4 q!3 q!3 q!3 q!3 b!2 s!0 s!0) (* (- 2) (* a!4 q!3 q!3 q!3 q!3 b!2 b!2 s!0 s!0)) (* q!3 q!3 q!3 q!3 b!2 b!2 b!2 s!0 s!0) ?x1596 (* 2 (* p!5 q!3 q!3 r!1 r!1 s!0 s!0)) (* (- 1) (* q!3 q!3 q!3 r!1 r!1 s!0 s!0)) (* 2 (* p!5 p!5 q!3 r!1 s!0 s!0 s!0)) (* (- 4) (* p!5 q!3 q!3 r!1 s!0 s!0 s!0)) (* 2 (* q!3 q!3 q!3 r!1 s!0 s!0 s!0)) (* (- 1) (* p!5 p!5 q!3 s!0 s!0 s!0 s!0)) ?x809 (* 2 (* p!5 q!3 q!3 s!0 s!0 s!0 s!0)) (* (- 1) (* q!3 q!3 q!3 s!0 s!0 s!0 s!0)) ?x995 ?x1034 ?x1257 ?x1657 ?x586 ?x609 ?x587 ?x1009 (* p!5 p!5 p!5 q!3 b!2 s!0 s!0 s!0 s!0 s!0) ?x1230 ?x1239 ?x852)))
 (let ((?x1343 (+ (* b!2 q00 r00) (* (- 1) (* b!2 p00 s00)) (* s!0 p00 b00) (* (- 1) (* q!3 r00 b00)) (* q!3 s00 a00) (* (- 1) (* s!0 q00 a00)))))
 (let ((?x228 (+ (* a!4 p00 s00) (* (- 1) (* a!4 q00 r00)) (* p!5 r00 b00) (* (- 1) (* r!1 p00 b00)) (* (- 1) (* p!5 s00 a00)) (* r!1 q00 a00))))
 (let (($x1504 (= (+ (* a!4 q!3) (* (- 1) ?x140) (* p00 b00) (* (- 1) ?x1414)) 0)))
 (let (($x1847 (= (+ (* p!5 s!0) (* (- 1) ?x37) ?x41 (* (- 1) (* q!3 r!1))) 0)))
 (let (($x930 (and $x1847 (= ?x814 0) $x1504 (= ?x228 0) (= ?x1343 0) (or (not (= (* ?x814 ?x853) 0)) (not (= (* ?x814 ?x939) 0))))))
 (let (($x526 (exists ((p Int) (a Int) (q Int) (b Int) (r Int) (s Int) )(! (let ((?x730 (* p p p q b r r s s s)))
 (let ((?x634 (* (- 1) (* p p q r r s s))))
 (let ((?x367 (* p a a q q q b r s)))
 (let ((?x1816 (+ ?x367 ?x634 ?x730 (* (- 1) (* p p p p a a a r r)) (* p p p p a a b r r) (* 3 (* p p p a a a q r r)) (* (- 3) (* p p p a a q b r r)) (* (- 3) (* p p a a a q q r r)) (* 3 (* p p a a q q b r r)) (* p a a a q q q r r) (* (- 1) (* p a a q q q b r r)) (* p p p p a a a r s) (* (- 1) (* p p p p a a b r s)) (* (- 3) (* p p p a a a q r s)) (* 3 (* p p p a a q b r s)) (* 3 (* p p a a a q q r s)) (* (- 3) (* p p a a q q b r s)) (* (- 1) (* p a a a q q q r s)) (* p p p r r r r) (* (- 1) (* p p q r r r r)) (* (- 2) (* p p p r r r s)) (* 2 (* p p q r r r s)) (* p p p r r s s) (* (- 1) (* p p a a a a r r r r)) (* 2 (* p p a a a b r r r r)) (* (- 1) (* p p a a b b r r r r)) (* p p a a a a r r r s) (* (- 2) (* p p a a a b r r r s)) (* p p a a b b r r r s) (* (- 1) (* p p p p a r r r r r)) (* p p p p b r r r r r) (* p p p a q r r r r r) (* (- 1) (* p p p q b r r r r r)) (* 3 (* p p p p a r r r r s)) (* (- 3) (* p p p p b r r r r s)) (* (- 3) (* p p p a q r r r r s)) (* 3 (* p p p q b r r r r s)) (* (- 3) (* p p p p a r r r s s)) (* 3 (* p p p p b r r r s s)) (* 3 (* p p p a q r r r s s)) (* (- 3) (* p p p q b r r r s s)) (* p p p p a r r s s s) (* (- 1) (* p p p p b r r s s s)) (* (- 1) (* p p p a q r r s s s)))))
 (let ((?x152 (* r00 b00)))
 (let ((?x134 (* s00 a00)))
 (let ((?x141 (* (- 1) ?x134)))
 (let ((?x129 (* (- 1) (* b r))))
 (let ((?x49 (* a s)))
 (let ((?x159 (+ ?x49 ?x129 ?x141 ?x152)))
 (let ((?x960 (* (- 1) (* q q q q b s s s s s))))
 (let ((?x977 (* 3 (* p q q q b s s s s s))))
 (let ((?x976 (* (- 3) (* p p q q b s s s s s))))
 (let ((?x900 (* p p p q b s s s s s)))
 (let ((?x975 (* 2 (* q q q q b r s s s s))))
 (let ((?x974 (* (- 6) (* p q q q b r s s s s))))
 (let ((?x972 (* 6 (* p p q q b r s s s s))))
 (let ((?x970 (* (- 2) (* p p p q b r s s s s))))
 (let ((?x967 (* (- 3) (* p p q q b r r s s s))))
 (let ((?x969 (* 3 (* p q q q b r r s s s))))
 (let ((?x672 (* (- 1) (* q q q q b r r s s s))))
 (let ((?x642 (* (- 1) (* q q q s s s s))))
 (let ((?x659 (* 2 (* p q q s s s s))))
 (let ((?x340 (+ p (* (- 1) q))))
 (let ((?x303 (+ a (* (- 1) b))))
 (let ((?x264 (* (- 1) s)))
 (let ((?x266 (+ r ?x264)))
 (let ((?x596 (* ?x266 ?x266 ?x266 ?x303 ?x303 ?x340 ?x340 s b b)))
 (let ((?x640 (* (- 1) (* p p q s s s s))))
 (let ((?x656 (* 2 (* q q q r s s s))))
 (let ((?x653 (* (- 4) (* p q q r s s s))))
 (let ((?x649 (* 2 (* p p q r s s s))))
 (let ((?x636 (* (- 1) (* q q q r r s s))))
 (let ((?x646 (* 2 (* p q q r r s s))))
 (let ((?x489 (* q q q q b b b s s)))
 (let ((?x502 (* (- 2) (* a q q q q b b s s))))
 (let ((?x463 (* a a q q q q b s s)))
 (let ((?x457 (* (- 1) (* p q q q b b b s s))))
 (let ((?x501 (* 2 (* p a q q q b b s s))))
 (let ((?x432 (* (- 1) (* p a a q q q b s s))))
 (let ((?x422 (* (- 1) (* q q q q b b b r s))))
 (let ((?x500 (* 2 (* a q q q q b b r s))))
 (let ((?x397 (* (- 1) (* a a q q q q b r s))))
 (let ((?x385 (* p q q q b b b r s)))
 (let ((?x498 (* (- 2) (* p a q q q b b r s))))
 (let ((?x1300 (+ ?x367 ?x498 ?x385 ?x397 ?x500 ?x422 ?x432 ?x501 ?x457 ?x463 ?x502 ?x489 ?x634 ?x646 ?x636 ?x649 ?x653 ?x656 ?x640 ?x596 ?x659 ?x642 ?x672 ?x969 ?x967 ?x730 ?x970 ?x972 ?x974 ?x975 ?x900 ?x976 ?x977 ?x960)))
 (let ((?x72 (* b q00 r00)))
 (let ((?x318 (+ ?x72 (* (- 1) (* b p00 s00)) (* s p00 b00) (* (- 1) (* q r00 b00)) (* q s00 a00) (* (- 1) (* s q00 a00)))))
 (let (($x323 (= ?x318 0)))
 (let ((?x63 (* a p00 s00)))
 (let ((?x254 (+ ?x63 (* (- 1) (* a q00 r00)) (* p r00 b00) (* (- 1) (* r p00 b00)) (* (- 1) (* p s00 a00)) (* r q00 a00))))
 (let (($x255 (= ?x254 0)))
 (let ((?x145 (* p00 b00)))
 (let ((?x140 (* q00 a00)))
 (let ((?x186 (* (- 1) ?x140)))
 (let (($x189 (= (+ (* a q) ?x186 ?x145 (* (- 1) (* p b))) 0)))
 (let (($x167 (= ?x159 0)))
 (let ((?x41 (* q00 r00)))
 (let ((?x37 (* p00 s00)))
 (let ((?x143 (* (- 1) ?x37)))
 (let ((?x33 (* p s)))
 (let (($x162 (= (+ ?x33 ?x143 ?x41 (* (- 1) (* q r))) 0)))
 (and $x162 $x167 $x189 $x255 $x323 (or (not (= (* ?x159 ?x1300) 0)) (not (= (* ?x159 ?x1816) 0)))))))))))))))))))))))))))))))))))))))))))))))))))))))))))))))))) :qid k!39))
 ))
 (let (($x612 (exists ((p Int) (a Int) (q Int) (b Int) (r Int) (s Int) )(! (let ((?x662 (+ q (* (- 1) p))))
 (let ((?x344 (* (- 1) a)))
 (let ((?x568 (+ b ?x344)))
 (let ((?x597 (+ s (* (- 1) r))))
 (let ((?x1047 (+ (* ?x597 ?x568 ?x662 ?x662 ?x662 r a a p) (* (- 1) (* ?x597 ?x597 ?x662 r r p p)) (* ?x597 ?x568 ?x568 r r r a a p p) (* ?x597 ?x597 ?x597 ?x568 ?x662 r r p p p))))
 (let ((?x51 (* b00 r00)))
 (let ((?x47 (* a00 s00)))
 (let ((?x1277 (* (- 1) ?x47)))
 (let (($x1705 (= (* (+ (* (- 1) (* ?x568 r)) ?x1277 (* ?x597 a) ?x51) ?x1047) 0)))
 (let ((?x340 (+ p (* (- 1) q))))
 (let ((?x264 (* (- 1) s)))
 (let ((?x266 (+ r ?x264)))
 (let ((?x303 (+ a (* (- 1) b))))
 (let ((?x596 (* ?x266 ?x266 ?x266 ?x303 ?x303 ?x340 ?x340 s b b)))
 (let ((?x619 (+ (* ?x266 ?x303 ?x303 ?x340 s b q q q) (* (- 1) (* ?x266 ?x266 ?x340 ?x340 s s q)) ?x596 (* ?x266 ?x266 ?x340 ?x340 ?x340 s s s b q))))
 (let (($x520 (= (* (+ (* (- 1) (* ?x266 b)) ?x1277 (* ?x303 s) ?x51) ?x619) 0)))
 (let (($x1709 (or (not $x520) (not $x1705))))
 (let ((?x73 (* b00 p00 s)))
 (let ((?x571 (+ (* q00 r00 b) ?x73 (* (- 1) (* b00 r00 q)) (* (- 1) (* p00 s00 b)) (* a00 s00 q) (* (- 1) (* a00 q00 s)))))
 (let (($x574 (= ?x571 0)))
 (let ((?x69 (* a00 q00 r)))
 (let ((?x628 (* p00 s00 a)))
 (let ((?x479 (* b00 r00 p)))
 (let ((?x1754 (+ ?x479 ?x628 (* (- 1) (* b00 p00 r)) (* (- 1) (* q00 r00 a)) (* (- 1) (* a00 s00 p)) ?x69)))
 (let ((?x57 (* b00 p00)))
 (let ((?x331 (* q a)))
 (let (($x329 (= (+ ?x331 (* (- 1) (* a00 q00)) ?x57 (* (- 1) (* b p))) 0)))
 (let (($x654 (= (+ (* r b) ?x47 (* (- 1) (* s a)) (* (- 1) ?x51)) 0)))
 (let ((?x41 (* q00 r00)))
 (let ((?x616 (* (- 1) ?x41)))
 (let ((?x37 (* p00 s00)))
 (let ((?x311 (* r q)))
 (and (= (+ ?x311 (* (- 1) (* s p)) ?x37 ?x616) 0) $x654 $x329 (= ?x1754 0) $x574 $x1709))))))))))))))))))))))))))))))))) :qid k!39))
 ))
 (let ((?x599 (lambda ((p Int) (a Int) (q Int) (b Int) (r Int) (s Int) )(let ((?x730 (* p p p q b r r s s s)))
 (let ((?x634 (* (- 1) (* p p q r r s s))))
 (let ((?x367 (* p a a q q q b r s)))
 (let ((?x1816 (+ ?x367 ?x634 ?x730 (* (- 1) (* p p p p a a a r r)) (* p p p p a a b r r) (* 3 (* p p p a a a q r r)) (* (- 3) (* p p p a a q b r r)) (* (- 3) (* p p a a a q q r r)) (* 3 (* p p a a q q b r r)) (* p a a a q q q r r) (* (- 1) (* p a a q q q b r r)) (* p p p p a a a r s) (* (- 1) (* p p p p a a b r s)) (* (- 3) (* p p p a a a q r s)) (* 3 (* p p p a a q b r s)) (* 3 (* p p a a a q q r s)) (* (- 3) (* p p a a q q b r s)) (* (- 1) (* p a a a q q q r s)) (* p p p r r r r) (* (- 1) (* p p q r r r r)) (* (- 2) (* p p p r r r s)) (* 2 (* p p q r r r s)) (* p p p r r s s) (* (- 1) (* p p a a a a r r r r)) (* 2 (* p p a a a b r r r r)) (* (- 1) (* p p a a b b r r r r)) (* p p a a a a r r r s) (* (- 2) (* p p a a a b r r r s)) (* p p a a b b r r r s) (* (- 1) (* p p p p a r r r r r)) (* p p p p b r r r r r) (* p p p a q r r r r r) (* (- 1) (* p p p q b r r r r r)) (* 3 (* p p p p a r r r r s)) (* (- 3) (* p p p p b r r r r s)) (* (- 3) (* p p p a q r r r r s)) (* 3 (* p p p q b r r r r s)) (* (- 3) (* p p p p a r r r s s)) (* 3 (* p p p p b r r r s s)) (* 3 (* p p p a q r r r s s)) (* (- 3) (* p p p q b r r r s s)) (* p p p p a r r s s s) (* (- 1) (* p p p p b r r s s s)) (* (- 1) (* p p p a q r r s s s)))))
 (let ((?x152 (* r00 b00)))
 (let ((?x134 (* s00 a00)))
 (let ((?x141 (* (- 1) ?x134)))
 (let ((?x129 (* (- 1) (* b r))))
 (let ((?x49 (* a s)))
 (let ((?x159 (+ ?x49 ?x129 ?x141 ?x152)))
 (let ((?x960 (* (- 1) (* q q q q b s s s s s))))
 (let ((?x977 (* 3 (* p q q q b s s s s s))))
 (let ((?x976 (* (- 3) (* p p q q b s s s s s))))
 (let ((?x900 (* p p p q b s s s s s)))
 (let ((?x975 (* 2 (* q q q q b r s s s s))))
 (let ((?x974 (* (- 6) (* p q q q b r s s s s))))
 (let ((?x972 (* 6 (* p p q q b r s s s s))))
 (let ((?x970 (* (- 2) (* p p p q b r s s s s))))
 (let ((?x967 (* (- 3) (* p p q q b r r s s s))))
 (let ((?x969 (* 3 (* p q q q b r r s s s))))
 (let ((?x672 (* (- 1) (* q q q q b r r s s s))))
 (let ((?x642 (* (- 1) (* q q q s s s s))))
 (let ((?x659 (* 2 (* p q q s s s s))))
 (let ((?x340 (+ p (* (- 1) q))))
 (let ((?x303 (+ a (* (- 1) b))))
 (let ((?x264 (* (- 1) s)))
 (let ((?x266 (+ r ?x264)))
 (let ((?x596 (* ?x266 ?x266 ?x266 ?x303 ?x303 ?x340 ?x340 s b b)))
 (let ((?x640 (* (- 1) (* p p q s s s s))))
 (let ((?x656 (* 2 (* q q q r s s s))))
 (let ((?x653 (* (- 4) (* p q q r s s s))))
 (let ((?x649 (* 2 (* p p q r s s s))))
 (let ((?x636 (* (- 1) (* q q q r r s s))))
 (let ((?x646 (* 2 (* p q q r r s s))))
 (let ((?x489 (* q q q q b b b s s)))
 (let ((?x502 (* (- 2) (* a q q q q b b s s))))
 (let ((?x463 (* a a q q q q b s s)))
 (let ((?x457 (* (- 1) (* p q q q b b b s s))))
 (let ((?x501 (* 2 (* p a q q q b b s s))))
 (let ((?x432 (* (- 1) (* p a a q q q b s s))))
 (let ((?x422 (* (- 1) (* q q q q b b b r s))))
 (let ((?x500 (* 2 (* a q q q q b b r s))))
 (let ((?x397 (* (- 1) (* a a q q q q b r s))))
 (let ((?x385 (* p q q q b b b r s)))
 (let ((?x498 (* (- 2) (* p a q q q b b r s))))
 (let ((?x1300 (+ ?x367 ?x498 ?x385 ?x397 ?x500 ?x422 ?x432 ?x501 ?x457 ?x463 ?x502 ?x489 ?x634 ?x646 ?x636 ?x649 ?x653 ?x656 ?x640 ?x596 ?x659 ?x642 ?x672 ?x969 ?x967 ?x730 ?x970 ?x972 ?x974 ?x975 ?x900 ?x976 ?x977 ?x960)))
 (let ((?x72 (* b q00 r00)))
 (let ((?x318 (+ ?x72 (* (- 1) (* b p00 s00)) (* s p00 b00) (* (- 1) (* q r00 b00)) (* q s00 a00) (* (- 1) (* s q00 a00)))))
 (let (($x323 (= ?x318 0)))
 (let ((?x63 (* a p00 s00)))
 (let ((?x254 (+ ?x63 (* (- 1) (* a q00 r00)) (* p r00 b00) (* (- 1) (* r p00 b00)) (* (- 1) (* p s00 a00)) (* r q00 a00))))
 (let (($x255 (= ?x254 0)))
 (let ((?x145 (* p00 b00)))
 (let ((?x140 (* q00 a00)))
 (let ((?x186 (* (- 1) ?x140)))
 (let (($x189 (= (+ (* a q) ?x186 ?x145 (* (- 1) (* p b))) 0)))
 (let (($x167 (= ?x159 0)))
 (let ((?x41 (* q00 r00)))
 (let ((?x37 (* p00 s00)))
 (let ((?x143 (* (- 1) ?x37)))
 (let ((?x33 (* p s)))
 (let (($x162 (= (+ ?x33 ?x143 ?x41 (* (- 1) (* q r))) 0)))
 (let (($x1620 (and $x162 $x167 $x189 $x255 $x323 (or (not (= (* ?x159 ?x1300) 0)) (not (= (* ?x159 ?x1816) 0))))))
 (let ((?x662 (+ q (* (- 1) p))))
 (let ((?x344 (* (- 1) a)))
 (let ((?x568 (+ b ?x344)))
 (let ((?x597 (+ s (* (- 1) r))))
 (let ((?x1047 (+ (* ?x597 ?x568 ?x662 ?x662 ?x662 r a a p) (* (- 1) (* ?x597 ?x597 ?x662 r r p p)) (* ?x597 ?x568 ?x568 r r r a a p p) (* ?x597 ?x597 ?x597 ?x568 ?x662 r r p p p))))
 (let ((?x51 (* b00 r00)))
 (let ((?x47 (* a00 s00)))
 (let ((?x1277 (* (- 1) ?x47)))
 (let (($x1705 (= (* (+ (* (- 1) (* ?x568 r)) ?x1277 (* ?x597 a) ?x51) ?x1047) 0)))
 (let ((?x619 (+ (* ?x266 ?x303 ?x303 ?x340 s b q q q) (* (- 1) (* ?x266 ?x266 ?x340 ?x340 s s q)) ?x596 (* ?x266 ?x266 ?x340 ?x340 ?x340 s s s b q))))
 (let (($x520 (= (* (+ (* (- 1) (* ?x266 b)) ?x1277 (* ?x303 s) ?x51) ?x619) 0)))
 (let (($x1709 (or (not $x520) (not $x1705))))
 (let ((?x73 (* b00 p00 s)))
 (let ((?x571 (+ (* q00 r00 b) ?x73 (* (- 1) (* b00 r00 q)) (* (- 1) (* p00 s00 b)) (* a00 s00 q) (* (- 1) (* a00 q00 s)))))
 (let (($x574 (= ?x571 0)))
 (let ((?x69 (* a00 q00 r)))
 (let ((?x628 (* p00 s00 a)))
 (let ((?x479 (* b00 r00 p)))
 (let ((?x1754 (+ ?x479 ?x628 (* (- 1) (* b00 p00 r)) (* (- 1) (* q00 r00 a)) (* (- 1) (* a00 s00 p)) ?x69)))
 (let ((?x57 (* b00 p00)))
 (let ((?x331 (* q a)))
 (let (($x329 (= (+ ?x331 (* (- 1) (* a00 q00)) ?x57 (* (- 1) (* b p))) 0)))
 (let (($x654 (= (+ (* r b) ?x47 (* (- 1) (* s a)) (* (- 1) ?x51)) 0)))
 (let (($x516 (= (+ (* r q) (* (- 1) (* s p)) ?x37 (* (- 1) ?x41)) 0)))
 (let (($x635 (and $x516 $x654 $x329 (= ?x1754 0) $x574 $x1709)))
 (rewrite (= $x635 $x1620)))))))))))))))))))))))))))))))))))))))))))))))))))))))))))))))))))))))))))))))))))))))))))
 ))
 (let (($x514 (exists ((p Int) (a Int) (q Int) (b Int) (r Int) (s Int) )(! (let ((?x662 (+ q (* (- 1) p))))
 (let ((?x344 (* (- 1) a)))
 (let ((?x568 (+ b ?x344)))
 (let ((?x597 (+ s (* (- 1) r))))
 (let ((?x1047 (+ (* ?x597 ?x568 ?x662 ?x662 ?x662 r a a p) (* (- 1) (* ?x597 ?x597 ?x662 r r p p)) (* ?x597 ?x568 ?x568 r r r a a p p) (* ?x597 ?x597 ?x597 ?x568 ?x662 r r p p p))))
 (let ((?x51 (* b00 r00)))
 (let ((?x47 (* a00 s00)))
 (let ((?x1277 (* (- 1) ?x47)))
 (let (($x1705 (= (* (+ (* (- 1) (* ?x568 r)) ?x1277 (* ?x597 a) ?x51) ?x1047) 0)))
 (let ((?x340 (+ p (* (- 1) q))))
 (let ((?x264 (* (- 1) s)))
 (let ((?x266 (+ r ?x264)))
 (let ((?x303 (+ a (* (- 1) b))))
 (let ((?x596 (* ?x266 ?x266 ?x266 ?x303 ?x303 ?x340 ?x340 s b b)))
 (let ((?x619 (+ (* ?x266 ?x303 ?x303 ?x340 s b q q q) (* (- 1) (* ?x266 ?x266 ?x340 ?x340 s s q)) ?x596 (* ?x266 ?x266 ?x340 ?x340 ?x340 s s s b q))))
 (let (($x520 (= (* (+ (* (- 1) (* ?x266 b)) ?x1277 (* ?x303 s) ?x51) ?x619) 0)))
 (let (($x1709 (or (not $x520) (not $x1705))))
 (let ((?x73 (* b00 p00 s)))
 (let ((?x571 (+ (* q00 r00 b) ?x73 (* (- 1) (* b00 r00 q)) (* (- 1) (* p00 s00 b)) (* a00 s00 q) (* (- 1) (* a00 q00 s)))))
 (let (($x574 (= ?x571 0)))
 (let ((?x647 (* a00 s00 p)))
 (let ((?x655 (* q00 r00 a)))
 (let ((?x65 (* b00 p00 r)))
 (let ((?x515 (+ (* (- 1) (* b00 r00 p)) (* (- 1) (* p00 s00 a)) ?x65 ?x655 ?x647 (* (- 1) (* a00 q00 r)))))
 (let ((?x59 (* b p)))
 (let ((?x55 (* a00 q00)))
 (let (($x661 (= (+ (* (- 1) (* q a)) ?x55 (* (- 1) (* b00 p00)) ?x59) 0)))
 (let ((?x41 (* q00 r00)))
 (let ((?x37 (* p00 s00)))
 (let ((?x143 (* (- 1) ?x37)))
 (let ((?x1789 (* s p)))
 (and (= (+ (* (- 1) (* r q)) ?x1789 ?x143 ?x41) 0) (= (+ (* (- 1) (* r b)) ?x1277 (* s a) ?x51) 0) $x661 (= ?x515 0) $x574 $x1709)))))))))))))))))))))))))))))))) :qid k!39))
 ))
 (let ((?x683 (lambda ((p Int) (a Int) (q Int) (b Int) (r Int) (s Int) )(let ((?x662 (+ q (* (- 1) p))))
 (let ((?x344 (* (- 1) a)))
 (let ((?x568 (+ b ?x344)))
 (let ((?x597 (+ s (* (- 1) r))))
 (let ((?x1047 (+ (* ?x597 ?x568 ?x662 ?x662 ?x662 r a a p) (* (- 1) (* ?x597 ?x597 ?x662 r r p p)) (* ?x597 ?x568 ?x568 r r r a a p p) (* ?x597 ?x597 ?x597 ?x568 ?x662 r r p p p))))
 (let ((?x51 (* b00 r00)))
 (let ((?x47 (* a00 s00)))
 (let ((?x1277 (* (- 1) ?x47)))
 (let (($x1705 (= (* (+ (* (- 1) (* ?x568 r)) ?x1277 (* ?x597 a) ?x51) ?x1047) 0)))
 (let ((?x340 (+ p (* (- 1) q))))
 (let ((?x264 (* (- 1) s)))
 (let ((?x266 (+ r ?x264)))
 (let ((?x303 (+ a (* (- 1) b))))
 (let ((?x596 (* ?x266 ?x266 ?x266 ?x303 ?x303 ?x340 ?x340 s b b)))
 (let ((?x619 (+ (* ?x266 ?x303 ?x303 ?x340 s b q q q) (* (- 1) (* ?x266 ?x266 ?x340 ?x340 s s q)) ?x596 (* ?x266 ?x266 ?x340 ?x340 ?x340 s s s b q))))
 (let (($x520 (= (* (+ (* (- 1) (* ?x266 b)) ?x1277 (* ?x303 s) ?x51) ?x619) 0)))
 (let (($x1709 (or (not $x520) (not $x1705))))
 (let ((?x73 (* b00 p00 s)))
 (let ((?x571 (+ (* q00 r00 b) ?x73 (* (- 1) (* b00 r00 q)) (* (- 1) (* p00 s00 b)) (* a00 s00 q) (* (- 1) (* a00 q00 s)))))
 (let (($x574 (= ?x571 0)))
 (let ((?x69 (* a00 q00 r)))
 (let ((?x628 (* p00 s00 a)))
 (let ((?x479 (* b00 r00 p)))
 (let ((?x1754 (+ ?x479 ?x628 (* (- 1) (* b00 p00 r)) (* (- 1) (* q00 r00 a)) (* (- 1) (* a00 s00 p)) ?x69)))
 (let ((?x57 (* b00 p00)))
 (let ((?x331 (* q a)))
 (let (($x329 (= (+ ?x331 (* (- 1) (* a00 q00)) ?x57 (* (- 1) (* b p))) 0)))
 (let (($x654 (= (+ (* r b) ?x47 (* (- 1) (* s a)) (* (- 1) ?x51)) 0)))
 (let ((?x41 (* q00 r00)))
 (let ((?x616 (* (- 1) ?x41)))
 (let ((?x37 (* p00 s00)))
 (let ((?x311 (* r q)))
 (let (($x635 (and (= (+ ?x311 (* (- 1) (* s p)) ?x37 ?x616) 0) $x654 $x329 (= ?x1754 0) $x574 $x1709)))
 (let ((?x647 (* a00 s00 p)))
 (let ((?x655 (* q00 r00 a)))
 (let ((?x65 (* b00 p00 r)))
 (let (($x542 (= (+ (* (- 1) ?x479) (* (- 1) ?x628) ?x65 ?x655 ?x647 (* (- 1) ?x69)) 0)))
 (let (($x661 (= (+ (* (- 1) ?x331) (* a00 q00) (* (- 1) ?x57) (* b p)) 0)))
 (let (($x1625 (and (= (+ (* (- 1) ?x311) (* s p) (* (- 1) ?x37) ?x41) 0) (= (+ (* (- 1) (* r b)) ?x1277 (* s a) ?x51) 0) $x661 $x542 $x574 $x1709)))
 (rewrite (= $x1625 $x635))))))))))))))))))))))))))))))))))))))))))
 ))
 (let (($x118 (exists ((p Int) (a Int) (q Int) (b Int) (r Int) (s Int) )(! (let ((?x103 (- s r)))
 (let ((?x106 (- q p)))
 (let ((?x100 (- b a)))
 (let ((?x109 (- (* a a ?x100 p ?x106 ?x106 ?x106 r ?x103) (* p p ?x106 r r ?x103 ?x103))))
 (let ((?x112 (+ ?x109 (* a a ?x100 ?x100 p p r r r ?x103) (* ?x100 p p p ?x106 r r ?x103 ?x103 ?x103))))
 (let ((?x51 (* b00 r00)))
 (let ((?x113 (* (+ (- (* (- 1) ?x100 r) (* a00 s00)) (* a ?x103) ?x51) ?x112)))
 (let ((?x84 (- r s)))
 (let ((?x90 (- p q)))
 (let ((?x87 (- a b)))
 (let ((?x93 (- (* ?x87 ?x87 b ?x90 q q q ?x84 s) (* ?x90 ?x90 q ?x84 ?x84 s s))))
 (let ((?x96 (+ ?x93 (* ?x87 ?x87 b b ?x90 ?x90 ?x84 ?x84 ?x84 s) (* b ?x90 ?x90 ?x90 q ?x84 ?x84 s s s))))
 (let ((?x97 (* (+ (- (* (- 1) b ?x84) (* a00 s00)) (* ?x87 s) ?x51) ?x96)))
 (let ((?x81 (* a00 q00 s)))
 (let ((?x76 (* b p00 s00)))
 (let ((?x77 (- (+ (* b q00 r00) (* b00 p00 s)) (* b00 q r00))))
 (let ((?x69 (* a00 q00 r)))
 (let ((?x66 (* a q00 r00)))
 (let ((?x65 (* b00 p00 r)))
 (let ((?x68 (+ (- (* (- 1) b00 p r00) (* a p00 s00)) ?x65 ?x66 (* a00 p s00))))
 (let ((?x59 (* b p)))
 (let ((?x60 (+ (- (+ (* (- 1) a q) (* a00 q00)) (* b00 p00)) ?x59)))
 (let (($x53 (= (+ (- (* (- 1) b r) (* a00 s00)) (* a s) ?x51) 0)))
 (let ((?x41 (* q00 r00)))
 (let ((?x42 (+ (- (+ (* (- 1) q r) (* p s)) (* p00 s00)) ?x41)))
 (and (= ?x42 0) $x53 (= ?x60 0) (= (- ?x68 ?x69) 0) (= (- (+ (- ?x77 ?x76) (* a00 q s00)) ?x81) 0) (or (not (= ?x97 0)) (not (= ?x113 0))))))))))))))))))))))))))))) :qid k!39))
 ))
 (let ((?x541 (lambda ((p Int) (a Int) (q Int) (b Int) (r Int) (s Int) )(let ((?x662 (+ q (* (- 1) p))))
 (let ((?x344 (* (- 1) a)))
 (let ((?x568 (+ b ?x344)))
 (let ((?x597 (+ s (* (- 1) r))))
 (let ((?x1047 (+ (* ?x597 ?x568 ?x662 ?x662 ?x662 r a a p) (* (- 1) (* ?x597 ?x597 ?x662 r r p p)) (* ?x597 ?x568 ?x568 r r r a a p p) (* ?x597 ?x597 ?x597 ?x568 ?x662 r r p p p))))
 (let ((?x51 (* b00 r00)))
 (let ((?x47 (* a00 s00)))
 (let ((?x1277 (* (- 1) ?x47)))
 (let (($x1705 (= (* (+ (* (- 1) (* ?x568 r)) ?x1277 (* ?x597 a) ?x51) ?x1047) 0)))
 (let ((?x340 (+ p (* (- 1) q))))
 (let ((?x264 (* (- 1) s)))
 (let ((?x266 (+ r ?x264)))
 (let ((?x303 (+ a (* (- 1) b))))
 (let ((?x596 (* ?x266 ?x266 ?x266 ?x303 ?x303 ?x340 ?x340 s b b)))
 (let ((?x619 (+ (* ?x266 ?x303 ?x303 ?x340 s b q q q) (* (- 1) (* ?x266 ?x266 ?x340 ?x340 s s q)) ?x596 (* ?x266 ?x266 ?x340 ?x340 ?x340 s s s b q))))
 (let (($x520 (= (* (+ (* (- 1) (* ?x266 b)) ?x1277 (* ?x303 s) ?x51) ?x619) 0)))
 (let (($x1709 (or (not $x520) (not $x1705))))
 (let ((?x73 (* b00 p00 s)))
 (let ((?x571 (+ (* q00 r00 b) ?x73 (* (- 1) (* b00 r00 q)) (* (- 1) (* p00 s00 b)) (* a00 s00 q) (* (- 1) (* a00 q00 s)))))
 (let (($x574 (= ?x571 0)))
 (let ((?x647 (* a00 s00 p)))
 (let ((?x655 (* q00 r00 a)))
 (let ((?x65 (* b00 p00 r)))
 (let ((?x515 (+ (* (- 1) (* b00 r00 p)) (* (- 1) (* p00 s00 a)) ?x65 ?x655 ?x647 (* (- 1) (* a00 q00 r)))))
 (let ((?x59 (* b p)))
 (let ((?x55 (* a00 q00)))
 (let (($x661 (= (+ (* (- 1) (* q a)) ?x55 (* (- 1) (* b00 p00)) ?x59) 0)))
 (let ((?x41 (* q00 r00)))
 (let ((?x37 (* p00 s00)))
 (let ((?x143 (* (- 1) ?x37)))
 (let ((?x1789 (* s p)))
 (let (($x1625 (and (= (+ (* (- 1) (* r q)) ?x1789 ?x143 ?x41) 0) (= (+ (* (- 1) (* r b)) ?x1277 (* s a) ?x51) 0) $x661 (= ?x515 0) $x574 $x1709)))
 (let ((?x103 (- s r)))
 (let ((?x106 (- q p)))
 (let ((?x100 (- b a)))
 (let ((?x109 (- (* a a ?x100 p ?x106 ?x106 ?x106 r ?x103) (* p p ?x106 r r ?x103 ?x103))))
 (let ((?x112 (+ ?x109 (* a a ?x100 ?x100 p p r r r ?x103) (* ?x100 p p p ?x106 r r ?x103 ?x103 ?x103))))
 (let (($x114 (= (* (+ (- (* (- 1) ?x100 r) ?x47) (* a ?x103) ?x51) ?x112) 0)))
 (let ((?x84 (- r s)))
 (let ((?x90 (- p q)))
 (let ((?x87 (- a b)))
 (let ((?x93 (- (* ?x87 ?x87 b ?x90 q q q ?x84 s) (* ?x90 ?x90 q ?x84 ?x84 s s))))
 (let ((?x96 (+ ?x93 (* ?x87 ?x87 b b ?x90 ?x90 ?x84 ?x84 ?x84 s) (* b ?x90 ?x90 ?x90 q ?x84 ?x84 s s s))))
 (let (($x98 (= (* (+ (- (* (- 1) b ?x84) ?x47) (* ?x87 s) ?x51) ?x96) 0)))
 (let ((?x81 (* a00 q00 s)))
 (let ((?x76 (* b p00 s00)))
 (let ((?x80 (+ (- (- (+ (* b q00 r00) ?x73) (* b00 q r00)) ?x76) (* a00 q s00))))
 (let ((?x69 (* a00 q00 r)))
 (let ((?x66 (* a q00 r00)))
 (let ((?x68 (+ (- (* (- 1) b00 p r00) (* a p00 s00)) ?x65 ?x66 (* a00 p s00))))
 (let (($x61 (= (+ (- (+ (* (- 1) a q) ?x55) (* b00 p00)) ?x59) 0)))
 (let (($x44 (= (+ (- (+ (* (- 1) q r) (* p s)) ?x37) ?x41) 0)))
 (let (($x117 (and $x44 (= (+ (- (* (- 1) b r) ?x47) (* a s) ?x51) 0) $x61 (= (- ?x68 ?x69) 0) (= (- ?x80 ?x81) 0) (or (not $x98) (not $x114)))))
 (rewrite (= $x117 $x1625))))))))))))))))))))))))))))))))))))))))))))))))))))))))
 ))
 (let ((@x119 (asserted $x118)))
 (let ((@x539 (mp (mp @x119 (quant-intro (proof-bind ?x541) (= $x118 $x514)) $x514) (rewrite (= $x514 $x514)) $x514)))
 (let ((@x1870 (mp (mp @x539 (quant-intro (proof-bind ?x683) (= $x514 $x612)) $x612) (quant-intro (proof-bind ?x599) (= $x612 $x526)) $x526)))
 (let ((@x1056 (mp (mp~ @x1870 (sk (~ $x526 $x930)) $x930) (rewrite (= $x930 $x1039)) $x1039)))
 (let ((@x1699 (and-elim @x1056 $x1130)))
 (let ((@x1516 (unit-resolution ((_ th-lemma arith triangle-eq) (or (not $x1130) $x1094)) @x1699 $x1094)))
 (let (($x1093 (<= ?x1125 0)))
 (let ((@x378 (unit-resolution ((_ th-lemma arith triangle-eq) (or (not $x1130) $x1093)) @x1699 $x1093)))
 (let (($x1170 (not (<= ?x1669 0))))
 (let (($x290 (>= ?x160 0)))
 (let (($x178 (<= ?x160 0)))
 (let ((@x1174 (unit-resolution ((_ th-lemma arith triangle-eq) (or $x1215 (not $x178) (not $x290))) (lemma ((_ th-lemma arith farkas 1 1 1) (hypothesis (not $x178)) @x378 @x1516 false) $x178) (lemma ((_ th-lemma arith farkas 1 1 1) (hypothesis (not $x290)) @x378 @x1516 false) $x290) $x1215)))
 (let (($x1111 (>= ?x1669 0)))
 (let ((@x1347 (unit-resolution ((_ th-lemma arith triangle-eq) (or $x1221 $x1170 (not $x1111))) (lemma ((_ th-lemma arith farkas 1 1 1) (hypothesis (not $x1111)) @x378 @x1516 false) $x1111) (unit-resolution (and-elim @x1056 $x1001) @x1174 $x1151) $x1170)))
 ((_ th-lemma arith farkas 1 1 1) @x1347 @x378 @x1516 false))))))))))))))))))))))))))))))))))))))))))))))))))))))))))))))))))))))))))))))))))))))))))))))))))))))))))))))))))))))))

(:added-eqs                 8
 :arith-assert-diseq        3
 :arith-assert-lower        23
 :arith-assert-upper        18
 :arith-conflicts           4
 :arith-eq-adapter          9
 :arith-fixed-eqs           6
 :arith-grobner             2
 :arith-max-min             944
 :arith-nonlinear-bounds    4
 :arith-nonlinear-horner    20
 :arith-num-rows            11
 :arith-pivots              5
 :arith-pseudo-nonlinear    8
 :arith-row-summations      1
 :arith-tableau-max-columns 132
 :arith-tableau-max-rows    11
 :conflicts                 4
 :decisions                 7
 :del-clause                23
 :final-checks              4
 :max-memory                25.33
 :memory                    3.27
 :mk-bool-var               33
 :mk-clause                 32
 :num-allocs                99148752989.00
 :num-checks                1
 :propagations              19
 :rlimit-count              5286243
 :time                      5.21
 :total-time                5.22)
